\Problem name: diet

Minimize
OBJROW: 0.30000 x3 + 2.40000 x4 + 1.30000 x5 + 0.90000 x6 + 2 x7 + 1.90000 x8
Subject To
Calories:  - x0 + 110 x3 + 205 x4 + 160 x5 + 160 x6 + 420 x7 + 260 x8 = -0
Protein:  - x1 + 4 x3 + 32 x4 + 13 x5 + 8 x6 + 4 x7 + 14 x8 = -0
Calcium:  - x2 + 2 x3 + 12 x4 + 54 x5 + 285 x6 + 22 x7 + 80 x8 = -0
Bounds
 1800 <= x0 <= 2200
 91 <= x1
 0 <= x2 <= 1779
Integers
x3 x4 x5 x6 x7 x8 
End
